c A sample .txt file.
p cnf 10 20
1 -4 -8 20 0
2 -7 -9 -10 11 12 13 14 -15 16 17 -18 20 0
10 15 -11 16 19 20 0
11 -12 15 -16 0
1 2 -3 -4 -5 -6 8 9 7 -14 -15 -19 20 0
5 15 -20 0
1 3 5 -7 9 11 13 15 -17 19 0
1 4 -6 7 -8 9 10 0
3 -4 5 -7 11 12 15 -20 0
2 4 6 9 -10 11 12 13 15 16 -18 19 20 0